c File: data_files/evolved_graphs/g3703.col
c
c Auto generated graph
c
p edge 100 2068
e 1 3
e 1 4
e 1 8
e 1 9
e 1 11
e 1 13
e 1 15
e 1 18
e 1 19
e 1 20
e 1 22
e 1 26
e 1 28
e 1 29
e 1 30
e 1 32
e 1 33
e 1 35
e 1 36
e 1 37
e 1 39
e 1 40
e 1 41
e 1 42
e 1 43
e 1 44
e 1 45
e 1 51
e 1 52
e 1 53
e 1 54
e 1 56
e 1 59
e 1 60
e 1 66
e 1 69
e 1 70
e 1 71
e 1 75
e 1 76
e 1 88
e 1 92
e 2 4
e 2 5
e 2 6
e 2 8
e 2 10
e 2 11
e 2 12
e 2 13
e 2 15
e 2 16
e 2 19
e 2 21
e 2 22
e 2 24
e 2 25
e 2 27
e 2 29
e 2 30
e 2 31
e 2 32
e 2 33
e 2 37
e 2 39
e 2 40
e 2 41
e 2 44
e 2 46
e 2 47
e 2 50
e 2 51
e 2 53
e 2 54
e 2 55
e 2 56
e 2 57
e 2 58
e 2 59
e 2 60
e 2 61
e 2 62
e 2 65
e 2 67
e 2 68
e 2 70
e 2 72
e 2 77
e 2 79
e 2 85
e 2 87
e 2 88
e 2 91
e 2 92
e 2 94
e 3 5
e 3 6
e 3 8
e 3 9
e 3 14
e 3 15
e 3 16
e 3 20
e 3 22
e 3 23
e 3 26
e 3 27
e 3 29
e 3 34
e 3 35
e 3 36
e 3 38
e 3 39
e 3 41
e 3 42
e 3 44
e 3 45
e 3 47
e 3 48
e 3 50
e 3 52
e 3 53
e 3 54
e 3 55
e 3 58
e 3 59
e 3 61
e 3 63
e 3 64
e 3 68
e 3 69
e 3 71
e 3 72
e 3 75
e 3 76
e 3 79
e 3 80
e 3 83
e 3 84
e 3 86
e 3 93
e 3 94
e 4 6
e 4 10
e 4 11
e 4 12
e 4 14
e 4 15
e 4 16
e 4 20
e 4 25
e 4 26
e 4 28
e 4 29
e 4 31
e 4 32
e 4 33
e 4 34
e 4 36
e 4 37
e 4 39
e 4 40
e 4 41
e 4 42
e 4 46
e 4 47
e 4 48
e 4 49
e 4 50
e 4 53
e 4 54
e 4 57
e 4 58
e 4 59
e 4 60
e 4 62
e 4 64
e 4 65
e 4 66
e 4 67
e 4 68
e 4 73
e 4 74
e 4 76
e 5 7
e 5 8
e 5 14
e 5 15
e 5 16
e 5 17
e 5 19
e 5 23
e 5 25
e 5 28
e 5 29
e 5 30
e 5 33
e 5 34
e 5 35
e 5 36
e 5 37
e 5 39
e 5 40
e 5 43
e 5 47
e 5 51
e 5 53
e 5 55
e 5 57
e 5 58
e 5 59
e 5 60
e 5 61
e 5 63
e 5 65
e 5 67
e 5 69
e 5 71
e 5 72
e 5 74
e 5 76
e 5 79
e 5 83
e 5 93
e 6 7
e 6 11
e 6 12
e 6 14
e 6 15
e 6 16
e 6 19
e 6 21
e 6 22
e 6 24
e 6 26
e 6 30
e 6 32
e 6 33
e 6 34
e 6 35
e 6 36
e 6 39
e 6 40
e 6 42
e 6 45
e 6 48
e 6 49
e 6 50
e 6 52
e 6 54
e 6 56
e 6 57
e 6 60
e 6 65
e 6 66
e 6 67
e 6 68
e 6 70
e 6 71
e 6 72
e 6 75
e 6 82
e 6 84
e 6 89
e 6 94
e 7 8
e 7 9
e 7 12
e 7 16
e 7 17
e 7 18
e 7 21
e 7 23
e 7 24
e 7 27
e 7 33
e 7 35
e 7 39
e 7 40
e 7 41
e 7 42
e 7 43
e 7 49
e 7 50
e 7 53
e 7 55
e 7 58
e 7 65
e 7 71
e 7 72
e 7 75
e 7 76
e 7 85
e 8 9
e 8 11
e 8 13
e 8 14
e 8 16
e 8 18
e 8 19
e 8 20
e 8 23
e 8 25
e 8 26
e 8 27
e 8 28
e 8 29
e 8 30
e 8 34
e 8 35
e 8 42
e 8 44
e 8 45
e 8 46
e 8 47
e 8 49
e 8 53
e 8 54
e 8 56
e 8 59
e 8 60
e 8 62
e 8 63
e 8 64
e 8 67
e 8 68
e 8 71
e 8 75
e 8 76
e 8 83
e 8 84
e 8 86
e 8 90
e 8 91
e 9 11
e 9 12
e 9 16
e 9 21
e 9 22
e 9 23
e 9 25
e 9 29
e 9 30
e 9 31
e 9 33
e 9 35
e 9 37
e 9 38
e 9 39
e 9 41
e 9 42
e 9 45
e 9 48
e 9 49
e 9 54
e 9 55
e 9 56
e 9 60
e 9 62
e 9 63
e 9 65
e 9 66
e 9 70
e 9 73
e 9 74
e 9 78
e 9 80
e 9 83
e 9 88
e 9 91
e 9 96
e 10 11
e 10 13
e 10 14
e 10 16
e 10 21
e 10 24
e 10 25
e 10 26
e 10 27
e 10 28
e 10 29
e 10 30
e 10 31
e 10 32
e 10 35
e 10 39
e 10 40
e 10 41
e 10 43
e 10 44
e 10 47
e 10 51
e 10 54
e 10 55
e 10 56
e 10 57
e 10 58
e 10 61
e 10 62
e 10 64
e 10 65
e 10 66
e 10 67
e 10 68
e 10 69
e 10 70
e 10 73
e 10 74
e 10 81
e 10 83
e 10 86
e 10 94
e 10 97
e 11 12
e 11 14
e 11 15
e 11 18
e 11 21
e 11 22
e 11 23
e 11 25
e 11 27
e 11 28
e 11 32
e 11 33
e 11 35
e 11 36
e 11 37
e 11 38
e 11 39
e 11 42
e 11 43
e 11 44
e 11 45
e 11 46
e 11 48
e 11 50
e 11 52
e 11 53
e 11 59
e 11 60
e 11 61
e 11 63
e 11 65
e 11 69
e 11 70
e 11 72
e 11 73
e 11 75
e 11 78
e 11 81
e 12 13
e 12 16
e 12 18
e 12 21
e 12 22
e 12 26
e 12 27
e 12 30
e 12 31
e 12 33
e 12 34
e 12 35
e 12 42
e 12 44
e 12 46
e 12 49
e 12 50
e 12 52
e 12 54
e 12 56
e 12 57
e 12 60
e 12 62
e 12 63
e 12 64
e 12 65
e 12 66
e 12 68
e 12 71
e 12 72
e 12 73
e 12 74
e 12 75
e 12 92
e 13 17
e 13 18
e 13 19
e 13 22
e 13 27
e 13 29
e 13 30
e 13 31
e 13 36
e 13 39
e 13 40
e 13 41
e 13 42
e 13 43
e 13 44
e 13 45
e 13 48
e 13 54
e 13 55
e 13 57
e 13 61
e 13 64
e 13 66
e 13 68
e 13 70
e 13 71
e 13 74
e 13 75
e 13 77
e 13 79
e 13 85
e 13 88
e 13 92
e 14 15
e 14 17
e 14 18
e 14 19
e 14 20
e 14 22
e 14 24
e 14 25
e 14 26
e 14 28
e 14 29
e 14 31
e 14 33
e 14 36
e 14 37
e 14 38
e 14 41
e 14 42
e 14 43
e 14 45
e 14 46
e 14 47
e 14 48
e 14 50
e 14 51
e 14 53
e 14 56
e 14 57
e 14 58
e 14 59
e 14 60
e 14 61
e 14 62
e 14 65
e 14 67
e 14 69
e 14 71
e 14 76
e 14 82
e 14 83
e 14 86
e 14 88
e 14 89
e 15 16
e 15 17
e 15 18
e 15 19
e 15 20
e 15 24
e 15 25
e 15 28
e 15 29
e 15 31
e 15 41
e 15 44
e 15 49
e 15 50
e 15 52
e 15 53
e 15 54
e 15 57
e 15 58
e 15 59
e 15 60
e 15 61
e 15 63
e 15 64
e 15 66
e 15 68
e 15 69
e 15 70
e 15 71
e 15 73
e 15 74
e 15 75
e 15 76
e 15 82
e 15 83
e 15 84
e 15 85
e 15 90
e 15 93
e 15 94
e 16 18
e 16 19
e 16 21
e 16 22
e 16 24
e 16 25
e 16 26
e 16 33
e 16 34
e 16 35
e 16 36
e 16 37
e 16 39
e 16 44
e 16 45
e 16 47
e 16 48
e 16 51
e 16 54
e 16 55
e 16 62
e 16 63
e 16 64
e 16 68
e 16 69
e 16 71
e 16 74
e 16 76
e 16 93
e 17 19
e 17 20
e 17 21
e 17 24
e 17 25
e 17 30
e 17 31
e 17 32
e 17 34
e 17 35
e 17 38
e 17 39
e 17 40
e 17 42
e 17 45
e 17 47
e 17 48
e 17 50
e 17 51
e 17 53
e 17 54
e 17 56
e 17 57
e 17 59
e 17 61
e 17 63
e 17 64
e 17 65
e 17 66
e 17 67
e 17 68
e 17 71
e 17 74
e 17 76
e 17 80
e 17 82
e 17 83
e 17 85
e 18 19
e 18 20
e 18 21
e 18 22
e 18 27
e 18 28
e 18 33
e 18 34
e 18 37
e 18 38
e 18 40
e 18 41
e 18 43
e 18 44
e 18 47
e 18 48
e 18 51
e 18 52
e 18 53
e 18 54
e 18 56
e 18 58
e 18 59
e 18 60
e 18 62
e 18 65
e 18 66
e 18 67
e 18 68
e 18 73
e 18 75
e 18 76
e 18 79
e 18 82
e 18 85
e 18 86
e 18 89
e 18 92
e 18 97
e 19 20
e 19 22
e 19 24
e 19 25
e 19 26
e 19 27
e 19 28
e 19 30
e 19 31
e 19 32
e 19 33
e 19 34
e 19 35
e 19 37
e 19 39
e 19 41
e 19 42
e 19 43
e 19 44
e 19 47
e 19 50
e 19 51
e 19 52
e 19 60
e 19 61
e 19 63
e 19 66
e 19 67
e 19 68
e 19 69
e 19 73
e 19 75
e 19 76
e 19 78
e 19 79
e 19 84
e 19 86
e 19 89
e 19 91
e 20 21
e 20 23
e 20 24
e 20 25
e 20 28
e 20 31
e 20 32
e 20 33
e 20 34
e 20 37
e 20 38
e 20 43
e 20 44
e 20 46
e 20 48
e 20 51
e 20 53
e 20 54
e 20 57
e 20 58
e 20 59
e 20 61
e 20 62
e 20 65
e 20 68
e 20 70
e 20 71
e 20 73
e 20 74
e 20 75
e 20 76
e 20 79
e 20 85
e 20 88
e 20 94
e 20 97
e 21 23
e 21 24
e 21 26
e 21 28
e 21 30
e 21 35
e 21 36
e 21 38
e 21 39
e 21 40
e 21 42
e 21 43
e 21 44
e 21 45
e 21 47
e 21 49
e 21 50
e 21 51
e 21 52
e 21 55
e 21 59
e 21 61
e 21 62
e 21 63
e 21 65
e 21 66
e 21 67
e 21 68
e 21 71
e 21 73
e 21 76
e 21 79
e 21 81
e 21 90
e 21 100
e 22 24
e 22 25
e 22 28
e 22 29
e 22 33
e 22 34
e 22 36
e 22 37
e 22 38
e 22 39
e 22 40
e 22 41
e 22 43
e 22 44
e 22 45
e 22 46
e 22 49
e 22 50
e 22 53
e 22 54
e 22 55
e 22 57
e 22 59
e 22 60
e 22 61
e 22 63
e 22 65
e 22 66
e 22 68
e 22 69
e 22 72
e 22 73
e 22 74
e 22 75
e 22 78
e 22 83
e 22 85
e 22 88
e 22 89
e 22 96
e 22 98
e 23 26
e 23 28
e 23 30
e 23 32
e 23 33
e 23 34
e 23 37
e 23 38
e 23 39
e 23 40
e 23 45
e 23 46
e 23 49
e 23 50
e 23 51
e 23 53
e 23 55
e 23 56
e 23 58
e 23 59
e 23 60
e 23 62
e 23 63
e 23 64
e 23 65
e 23 66
e 23 67
e 23 68
e 23 70
e 23 71
e 23 73
e 23 74
e 23 75
e 23 76
e 23 79
e 23 89
e 24 27
e 24 29
e 24 30
e 24 33
e 24 35
e 24 36
e 24 37
e 24 38
e 24 39
e 24 40
e 24 41
e 24 42
e 24 44
e 24 49
e 24 51
e 24 53
e 24 54
e 24 55
e 24 56
e 24 57
e 24 61
e 24 63
e 24 65
e 24 66
e 24 67
e 24 68
e 24 69
e 24 70
e 24 73
e 24 76
e 24 78
e 24 83
e 24 92
e 25 26
e 25 27
e 25 28
e 25 29
e 25 31
e 25 33
e 25 34
e 25 37
e 25 38
e 25 41
e 25 44
e 25 45
e 25 47
e 25 50
e 25 52
e 25 53
e 25 55
e 25 56
e 25 57
e 25 58
e 25 60
e 25 64
e 25 65
e 25 66
e 25 67
e 25 69
e 25 70
e 25 72
e 25 75
e 25 76
e 25 77
e 25 95
e 26 28
e 26 34
e 26 35
e 26 36
e 26 38
e 26 39
e 26 41
e 26 42
e 26 43
e 26 44
e 26 45
e 26 47
e 26 48
e 26 51
e 26 52
e 26 55
e 26 58
e 26 59
e 26 60
e 26 65
e 26 66
e 26 69
e 26 70
e 26 73
e 26 74
e 26 76
e 26 77
e 26 84
e 26 87
e 26 88
e 27 29
e 27 31
e 27 32
e 27 34
e 27 35
e 27 36
e 27 38
e 27 40
e 27 42
e 27 43
e 27 45
e 27 46
e 27 47
e 27 49
e 27 50
e 27 51
e 27 54
e 27 56
e 27 57
e 27 59
e 27 61
e 27 65
e 27 66
e 27 67
e 27 68
e 27 69
e 27 71
e 27 72
e 27 74
e 27 75
e 27 76
e 27 77
e 27 80
e 27 87
e 28 33
e 28 34
e 28 35
e 28 36
e 28 37
e 28 39
e 28 42
e 28 43
e 28 44
e 28 45
e 28 46
e 28 48
e 28 53
e 28 56
e 28 57
e 28 59
e 28 60
e 28 64
e 28 67
e 28 70
e 28 71
e 28 72
e 28 74
e 28 75
e 28 82
e 28 91
e 29 33
e 29 36
e 29 37
e 29 39
e 29 41
e 29 42
e 29 44
e 29 45
e 29 46
e 29 47
e 29 48
e 29 49
e 29 50
e 29 51
e 29 56
e 29 57
e 29 58
e 29 59
e 29 60
e 29 61
e 29 62
e 29 67
e 29 68
e 29 69
e 29 73
e 29 75
e 29 76
e 30 31
e 30 32
e 30 33
e 30 37
e 30 39
e 30 40
e 30 41
e 30 43
e 30 44
e 30 45
e 30 48
e 30 49
e 30 51
e 30 55
e 30 57
e 30 60
e 30 61
e 30 65
e 30 67
e 30 70
e 30 73
e 30 75
e 30 78
e 30 80
e 30 90
e 30 93
e 30 95
e 31 33
e 31 36
e 31 37
e 31 40
e 31 41
e 31 45
e 31 46
e 31 47
e 31 49
e 31 50
e 31 51
e 31 57
e 31 58
e 31 60
e 31 61
e 31 62
e 31 65
e 31 66
e 31 67
e 31 68
e 31 70
e 31 72
e 31 73
e 31 74
e 31 75
e 31 76
e 31 77
e 31 79
e 31 82
e 31 88
e 31 91
e 31 92
e 32 36
e 32 38
e 32 39
e 32 40
e 32 41
e 32 44
e 32 47
e 32 48
e 32 50
e 32 56
e 32 58
e 32 61
e 32 63
e 32 65
e 32 66
e 32 68
e 32 70
e 32 71
e 32 72
e 32 73
e 32 74
e 32 75
e 32 76
e 32 78
e 32 79
e 32 86
e 32 87
e 32 88
e 32 96
e 33 37
e 33 39
e 33 44
e 33 46
e 33 47
e 33 48
e 33 50
e 33 53
e 33 55
e 33 56
e 33 59
e 33 61
e 33 62
e 33 64
e 33 67
e 33 72
e 33 73
e 33 75
e 33 79
e 33 81
e 33 82
e 33 86
e 33 90
e 33 93
e 33 94
e 34 35
e 34 36
e 34 37
e 34 40
e 34 41
e 34 45
e 34 48
e 34 49
e 34 53
e 34 54
e 34 57
e 34 59
e 34 60
e 34 63
e 34 64
e 34 65
e 34 67
e 34 68
e 34 69
e 34 70
e 34 72
e 34 74
e 34 77
e 34 80
e 34 82
e 34 92
e 35 38
e 35 41
e 35 42
e 35 43
e 35 44
e 35 45
e 35 46
e 35 48
e 35 49
e 35 51
e 35 52
e 35 54
e 35 61
e 35 63
e 35 67
e 35 68
e 35 71
e 35 73
e 35 74
e 35 79
e 35 86
e 35 88
e 35 93
e 35 97
e 36 37
e 36 39
e 36 41
e 36 42
e 36 43
e 36 49
e 36 50
e 36 51
e 36 52
e 36 54
e 36 57
e 36 59
e 36 60
e 36 63
e 36 64
e 36 67
e 36 69
e 36 74
e 36 76
e 36 77
e 36 80
e 36 82
e 36 83
e 36 89
e 36 91
e 37 38
e 37 39
e 37 40
e 37 43
e 37 51
e 37 55
e 37 56
e 37 58
e 37 59
e 37 61
e 37 62
e 37 63
e 37 65
e 37 66
e 37 68
e 37 72
e 37 73
e 37 75
e 37 77
e 37 80
e 37 82
e 37 83
e 37 87
e 37 91
e 37 94
e 37 100
e 38 39
e 38 40
e 38 42
e 38 46
e 38 47
e 38 48
e 38 50
e 38 52
e 38 54
e 38 55
e 38 57
e 38 62
e 38 65
e 38 67
e 38 68
e 38 69
e 38 70
e 38 71
e 38 73
e 38 74
e 38 75
e 38 76
e 38 88
e 39 40
e 39 41
e 39 42
e 39 43
e 39 45
e 39 47
e 39 49
e 39 50
e 39 51
e 39 52
e 39 56
e 39 57
e 39 58
e 39 62
e 39 63
e 39 65
e 39 66
e 39 68
e 39 69
e 39 70
e 39 71
e 39 72
e 39 73
e 39 75
e 39 83
e 39 86
e 39 88
e 39 89
e 39 90
e 39 92
e 40 41
e 40 42
e 40 43
e 40 45
e 40 46
e 40 47
e 40 48
e 40 50
e 40 51
e 40 52
e 40 53
e 40 55
e 40 56
e 40 57
e 40 62
e 40 68
e 40 71
e 40 73
e 40 79
e 40 92
e 40 94
e 41 42
e 41 46
e 41 48
e 41 49
e 41 50
e 41 52
e 41 54
e 41 55
e 41 57
e 41 58
e 41 60
e 41 63
e 41 66
e 41 68
e 41 69
e 41 71
e 41 72
e 41 74
e 41 75
e 41 76
e 41 77
e 41 78
e 41 80
e 41 82
e 41 83
e 41 84
e 41 86
e 41 89
e 42 43
e 42 44
e 42 45
e 42 48
e 42 49
e 42 51
e 42 53
e 42 55
e 42 57
e 42 58
e 42 60
e 42 61
e 42 62
e 42 65
e 42 68
e 42 69
e 42 74
e 42 76
e 42 80
e 42 81
e 42 90
e 42 92
e 43 44
e 43 46
e 43 47
e 43 48
e 43 49
e 43 53
e 43 54
e 43 55
e 43 56
e 43 60
e 43 61
e 43 62
e 43 63
e 43 65
e 43 66
e 43 67
e 43 68
e 43 70
e 43 71
e 43 73
e 43 74
e 43 76
e 43 77
e 43 79
e 43 84
e 43 92
e 43 95
e 44 45
e 44 47
e 44 48
e 44 49
e 44 51
e 44 52
e 44 55
e 44 56
e 44 57
e 44 58
e 44 59
e 44 60
e 44 63
e 44 64
e 44 65
e 44 66
e 44 67
e 44 69
e 44 70
e 44 73
e 44 75
e 44 80
e 44 85
e 44 86
e 44 87
e 44 91
e 45 49
e 45 50
e 45 51
e 45 52
e 45 53
e 45 54
e 45 56
e 45 57
e 45 61
e 45 62
e 45 63
e 45 64
e 45 66
e 45 68
e 45 71
e 45 72
e 45 74
e 45 76
e 45 77
e 45 78
e 45 79
e 45 87
e 45 88
e 45 94
e 45 95
e 46 48
e 46 52
e 46 53
e 46 54
e 46 56
e 46 57
e 46 59
e 46 60
e 46 62
e 46 63
e 46 64
e 46 66
e 46 67
e 46 76
e 46 77
e 46 78
e 46 81
e 46 86
e 46 89
e 47 49
e 47 50
e 47 51
e 47 52
e 47 57
e 47 61
e 47 62
e 47 63
e 47 65
e 47 67
e 47 68
e 47 70
e 47 71
e 47 73
e 47 74
e 47 75
e 47 76
e 47 81
e 47 82
e 47 87
e 47 89
e 47 91
e 47 94
e 47 98
e 48 49
e 48 50
e 48 51
e 48 55
e 48 56
e 48 58
e 48 59
e 48 60
e 48 61
e 48 62
e 48 63
e 48 64
e 48 65
e 48 69
e 48 73
e 48 79
e 48 80
e 48 82
e 48 84
e 48 93
e 48 94
e 49 51
e 49 52
e 49 53
e 49 54
e 49 56
e 49 57
e 49 58
e 49 60
e 49 62
e 49 65
e 49 66
e 49 67
e 49 68
e 49 70
e 49 71
e 49 72
e 49 73
e 49 75
e 49 76
e 49 78
e 49 82
e 49 85
e 49 90
e 49 92
e 49 93
e 49 94
e 50 51
e 50 53
e 50 55
e 50 56
e 50 58
e 50 60
e 50 62
e 50 63
e 50 65
e 50 71
e 50 72
e 50 73
e 50 74
e 50 75
e 50 76
e 50 77
e 50 80
e 50 84
e 50 92
e 50 93
e 51 52
e 51 53
e 51 55
e 51 57
e 51 58
e 51 61
e 51 62
e 51 64
e 51 66
e 51 67
e 51 68
e 51 69
e 51 71
e 51 74
e 51 77
e 51 80
e 51 89
e 51 90
e 51 91
e 51 93
e 52 53
e 52 56
e 52 58
e 52 60
e 52 61
e 52 62
e 52 64
e 52 65
e 52 66
e 52 67
e 52 68
e 52 71
e 52 72
e 52 75
e 52 76
e 52 77
e 52 82
e 52 92
e 53 61
e 53 63
e 53 65
e 53 66
e 53 67
e 53 69
e 53 70
e 53 74
e 53 75
e 53 76
e 53 79
e 53 80
e 53 85
e 53 88
e 53 100
e 54 55
e 54 61
e 54 65
e 54 66
e 54 68
e 54 69
e 54 70
e 54 73
e 54 74
e 54 86
e 54 88
e 54 89
e 54 90
e 54 92
e 54 94
e 54 100
e 55 58
e 55 59
e 55 61
e 55 62
e 55 63
e 55 64
e 55 65
e 55 67
e 55 68
e 55 69
e 55 71
e 55 74
e 55 75
e 55 76
e 55 80
e 55 83
e 55 86
e 55 90
e 55 94
e 55 99
e 55 100
e 56 57
e 56 58
e 56 61
e 56 62
e 56 65
e 56 69
e 56 70
e 56 71
e 56 74
e 56 75
e 56 76
e 56 87
e 56 89
e 56 100
e 57 58
e 57 60
e 57 62
e 57 63
e 57 64
e 57 67
e 57 68
e 57 69
e 57 70
e 57 71
e 57 73
e 57 75
e 57 79
e 57 81
e 57 88
e 57 94
e 58 60
e 58 61
e 58 64
e 58 66
e 58 67
e 58 68
e 58 72
e 58 73
e 58 75
e 58 83
e 59 60
e 59 61
e 59 63
e 59 66
e 59 67
e 59 68
e 59 71
e 59 72
e 59 73
e 59 74
e 59 79
e 59 81
e 59 82
e 59 84
e 59 86
e 59 87
e 59 90
e 59 91
e 59 98
e 60 62
e 60 63
e 60 65
e 60 67
e 60 68
e 60 70
e 60 71
e 60 72
e 60 73
e 60 74
e 60 78
e 60 79
e 60 86
e 60 89
e 60 90
e 61 62
e 61 63
e 61 64
e 61 65
e 61 68
e 61 70
e 61 72
e 61 74
e 61 75
e 61 76
e 61 77
e 61 79
e 61 81
e 61 84
e 61 85
e 61 86
e 61 88
e 61 92
e 61 94
e 62 63
e 62 65
e 62 68
e 62 73
e 62 74
e 62 75
e 62 80
e 62 84
e 62 85
e 62 86
e 62 92
e 62 94
e 63 66
e 63 68
e 63 69
e 63 70
e 63 74
e 63 76
e 63 80
e 63 88
e 63 90
e 63 91
e 64 65
e 64 66
e 64 69
e 64 70
e 64 72
e 64 73
e 64 74
e 64 77
e 64 78
e 64 80
e 64 81
e 64 82
e 64 86
e 64 90
e 64 93
e 64 94
e 64 99
e 65 67
e 65 68
e 65 69
e 65 70
e 65 71
e 65 72
e 65 74
e 65 75
e 65 78
e 65 79
e 65 82
e 65 84
e 65 89
e 65 93
e 66 69
e 66 70
e 66 78
e 66 79
e 66 80
e 66 82
e 66 83
e 66 86
e 66 88
e 67 70
e 67 71
e 67 72
e 67 73
e 67 74
e 67 76
e 67 80
e 67 83
e 67 97
e 68 69
e 68 71
e 68 72
e 68 76
e 68 81
e 68 83
e 68 88
e 68 91
e 69 73
e 69 76
e 69 81
e 69 83
e 69 89
e 69 90
e 70 72
e 70 73
e 70 74
e 70 75
e 70 76
e 70 79
e 70 83
e 70 84
e 70 86
e 70 87
e 70 92
e 71 73
e 71 74
e 71 75
e 71 90
e 72 73
e 72 76
e 72 94
e 73 75
e 73 78
e 73 81
e 73 88
e 73 92
e 73 96
e 73 97
e 74 76
e 74 80
e 74 82
e 74 83
e 74 84
e 74 85
e 74 87
e 74 89
e 74 92
e 74 94
e 74 95
e 75 76
e 75 79
e 75 80
e 75 85
e 75 86
e 75 88
e 75 92
e 76 79
e 76 86
e 76 90
e 77 78
e 77 80
e 77 83
e 77 84
e 77 87
e 77 88
e 77 90
e 77 91
e 77 93
e 77 96
e 77 98
e 77 99
e 78 80
e 78 83
e 78 85
e 78 87
e 78 90
e 78 91
e 78 92
e 78 93
e 78 94
e 78 95
e 78 96
e 78 97
e 78 99
e 79 80
e 79 83
e 79 84
e 79 85
e 79 87
e 79 89
e 79 90
e 79 91
e 79 92
e 79 93
e 79 94
e 79 97
e 79 100
e 80 84
e 80 86
e 80 88
e 80 92
e 80 96
e 80 97
e 80 100
e 81 85
e 81 87
e 81 89
e 81 90
e 81 92
e 81 93
e 81 94
e 81 97
e 81 99
e 81 100
e 82 83
e 82 85
e 82 86
e 82 89
e 82 90
e 82 92
e 82 94
e 82 97
e 82 99
e 83 84
e 83 85
e 83 89
e 83 91
e 83 92
e 83 93
e 83 94
e 83 95
e 83 97
e 83 98
e 83 99
e 84 86
e 84 87
e 84 88
e 84 89
e 84 90
e 84 91
e 84 92
e 84 93
e 84 94
e 84 95
e 84 97
e 84 98
e 84 99
e 84 100
e 85 86
e 85 87
e 85 88
e 85 89
e 85 92
e 85 95
e 85 97
e 85 98
e 85 100
e 86 87
e 86 88
e 86 89
e 86 91
e 86 92
e 86 95
e 86 96
e 86 97
e 86 98
e 87 90
e 87 91
e 87 99
e 88 91
e 88 93
e 88 94
e 88 95
e 88 96
e 88 98
e 88 100
e 89 92
e 89 95
e 89 96
e 89 97
e 89 98
e 90 94
e 90 95
e 90 96
e 90 97
e 90 98
e 90 100
e 91 93
e 91 94
e 91 95
e 91 99
e 92 96
e 92 97
e 92 100
e 93 96
e 93 97
e 93 98
e 93 100
e 94 96
e 94 99
e 94 100
e 95 96
e 95 98
e 95 100
e 96 97
e 96 98
e 97 99
e 97 100
e 98 100
e 99 100
